576005 9661.59
496140 48918.2
9661.59 569378
506774 38756.5
276591 295447
296955 282119
30051.5 525736
442225 135298
145064 425818
543716 32843.5
476401 93051.8
203154 355177
369557 198749
214953 344167
100062 480231
440583 136413
329660 230194
452906 112547
73158.8 487102
236350 330958
65376.2 501387
195346 368279
466956 93914.3
88945.2 485401
320411 240894
20045.1 546633
229866 336507
28923.2 533413
151313 414687
183756 378586
192805 374542
273417 310265
316339 246137
395919 166627
463096 107643
85854.2 486630
180973 382590
223241 339523
170195 407559
131925 436660
355309 208288
287446 284682
214564 354690
359888 207522
170951 393266
115656 448236
546150 28247.4
298440 275368
12873.7 558826
448413 129353
328665 240550
60754.1 503609
365644 198766
302282 270781
226044 338648
341717 228516
309270 255501
227353 337750
197517 367315
548296 24808.9
408408 156979
320305 245106
388614 188504
341915 223576
108810 463582
350820 216349
542518 33199.5
268121 320576
